p edge 50 137 15
v 2 5 46
v 4 7 15 22 29
v 3 12 38 43
v 3 16 24 39
v 5 25 32 41 42 50
v 4 2 31 36 47
v 2 18 45
v 1 37
v 5 8 9 14 19 27
v 3 4 26 49
v 3 11 33 34
v 3 13 30 40
v 3 17 20 35
v 5 3 6 10 21 23
v 4 1 28 44 48
e 1 10
e 1 17
e 1 23
e 1 24
e 1 25
e 1 39
e 1 42
e 1 44
e 1 47
e 1 49
e 2 13
e 2 14
e 2 20
e 2 37
e 2 43
e 3 26
e 3 27
e 3 30
e 3 36
e 3 45
e 3 50
e 4 7
e 4 10
e 4 21
e 4 26
e 4 32
e 4 43
e 5 9
e 5 21
e 5 31
e 5 38
e 5 43
e 5 44
e 6 7
e 6 11
e 6 20
e 6 25
e 6 32
e 7 8
e 7 10
e 7 23
e 7 24
e 7 40
e 8 15
e 9 10
e 9 19
e 9 24
e 9 25
e 9 27
e 9 32
e 10 26
e 10 44
e 11 16
e 11 41
e 11 43
e 11 48
e 12 14
e 12 22
e 12 36
e 12 48
e 12 50
e 13 16
e 13 21
e 13 28
e 13 33
e 13 45
e 14 25
e 14 28
e 14 34
e 14 39
e 14 43
e 14 48
e 15 28
e 15 36
e 15 38
e 16 28
e 16 35
e 16 42
e 16 50
e 17 18
e 17 29
e 17 34
e 17 49
e 17 50
e 18 20
e 18 33
e 18 42
e 18 44
e 18 48
e 19 22
e 19 24
e 19 43
e 20 21
e 20 35
e 20 44
e 20 47
e 21 23
e 21 24
e 21 27
e 22 32
e 23 25
e 23 34
e 23 35
e 23 39
e 23 40
e 23 43
e 23 49
e 24 31
e 24 34
e 24 48
e 25 35
e 25 39
e 25 41
e 26 48
e 27 28
e 27 29
e 27 34
e 27 44
e 28 30
e 28 33
e 28 50
e 29 31
e 29 34
e 30 47
e 32 46
e 33 34
e 33 47
e 34 44
e 35 36
e 35 49
e 36 49
e 38 42
e 39 42
e 39 47
e 39 49
e 41 48
e 42 43
